(set-logic QF_UF)
(declare-fun A0 () Bool)
(declare-fun A2 () Bool)
(declare-fun A3 () Bool)
(declare-fun A4 () Bool)
(declare-fun A5 () Bool)
(declare-fun A6 () Bool)
(declare-fun A7 () Bool)
(declare-fun A8 () Bool)
(declare-fun A9 () Bool)
(declare-fun A10 () Bool)
(declare-fun A11 () Bool)
(declare-fun A12 () Bool)
(declare-fun A13 () Bool)
(declare-fun A14 () Bool)
(declare-fun A15 () Bool)
(declare-fun A16 () Bool)
(declare-fun A17 () Bool)
(declare-fun A19 () Bool)
(declare-fun A20 () Bool)
(declare-fun A21 () Bool)
(declare-fun A22 () Bool)
(declare-fun A23 () Bool)
(declare-fun A24 () Bool)
(assert (let ((.def_0 (and A14 A10))) (let ((.def_1 (not A2))) (let ((.def_2 (or .def_1 A22))) (let ((.def_3 (and .def_2 .def_0))) (let ((.def_4 (not .def_3))) (let ((.def_5 (not A24))) (let ((.def_6 (and A3 .def_5))) (let ((.def_7 (not .def_6))) (let ((.def_8 (not A17))) (let ((.def_9 (not A8))) (let ((.def_10 (and .def_9 .def_8))) (let ((.def_11 (and .def_10 .def_7))) (let ((.def_12 (not .def_11))) (let ((.def_13 (or .def_12 .def_4))) (let ((.def_14 (and A20 .def_8))) (let ((.def_15 (not A5))) (let ((.def_16 (not A21))) (let ((.def_17 (and .def_16 .def_15))) (let ((.def_18 (not .def_17))) (let ((.def_19 (or .def_18 .def_14))) (let ((.def_20 (not .def_19))) (let ((.def_21 (not A11))) (let ((.def_22 (and .def_21 A16))) (let ((.def_23 (not A0))) (let ((.def_24 (and .def_23 A15))) (let ((.def_25 (= .def_24 .def_22))) (let ((.def_26 (not .def_25))) (let ((.def_27 (or .def_26 .def_20))) (let ((.def_28 (not .def_27))) (let ((.def_29 (and .def_28 .def_13))) (let ((.def_30 (not .def_29))) (let ((.def_31 (not A13))) (let ((.def_32 (= A4 .def_31))) (let ((.def_33 (= A7 .def_21))) (let ((.def_34 (or .def_33 .def_32))) (let ((.def_35 (or A6 .def_5))) (let ((.def_36 (and .def_15 A24))) (let ((.def_37 (not .def_36))) (let ((.def_38 (or .def_37 .def_35))) (let ((.def_39 (or .def_38 .def_34))) (let ((.def_40 (or A6 A19))) (let ((.def_41 (not .def_40))) (let ((.def_42 (or .def_8 A11))) (let ((.def_43 (not .def_42))) (let ((.def_44 (and .def_43 .def_41))) (let ((.def_45 (not .def_44))) (let ((.def_46 (and A12 A24))) (let ((.def_47 (and A10 .def_1))) (let ((.def_48 (or .def_47 .def_46))) (let ((.def_49 (or .def_48 .def_45))) (let ((.def_50 (and .def_49 .def_39))) (let ((.def_51 (not .def_50))) (let ((.def_52 (and .def_51 .def_30))) (let ((.def_53 (= A9 A10))) (let ((.def_54 (not A23))) (let ((.def_55 (and .def_54 .def_31))) (let ((.def_56 (and .def_55 .def_53))) (let ((.def_57 (not .def_56))) (let ((.def_58 (and A21 A8))) (let ((.def_59 (not A6))) (let ((.def_60 (or A9 .def_59))) (let ((.def_61 (and .def_60 .def_58))) (let ((.def_62 (not .def_61))) (let ((.def_63 (and .def_62 .def_57))) (let ((.def_64 (not .def_63))) (let ((.def_65 (not A4))) (let ((.def_66 (or .def_65 A10))) (let ((.def_67 (or .def_5 A2))) (let ((.def_68 (or .def_67 .def_66))) (let ((.def_69 (not .def_68))) (let ((.def_70 (or A23 A22))) (let ((.def_71 (not A9))) (let ((.def_72 (not A7))) (let ((.def_73 (and .def_72 .def_71))) (let ((.def_74 (and .def_73 .def_70))) (let ((.def_75 (or .def_74 .def_69))) (let ((.def_76 (and .def_75 .def_64))) (let ((.def_77 (or A17 .def_16))) (let ((.def_78 (not .def_77))) (let ((.def_79 (and A12 A5))) (let ((.def_80 (or .def_79 .def_78))) (let ((.def_81 (not A10))) (let ((.def_82 (or A3 .def_81))) (let ((.def_83 (not .def_82))) (let ((.def_84 (or A12 A12))) (let ((.def_85 (not .def_84))) (let ((.def_86 (or .def_85 .def_83))) (let ((.def_87 (not .def_86))) (let ((.def_88 (or .def_87 .def_80))) (let ((.def_89 (not .def_88))) (let ((.def_90 (and A0 .def_65))) (let ((.def_91 (= A19 A17))) (let ((.def_92 (not .def_91))) (let ((.def_93 (or .def_92 .def_90))) (let ((.def_94 (not .def_93))) (let ((.def_95 (not A16))) (let ((.def_96 (and .def_95 A11))) (let ((.def_97 (not .def_96))) (let ((.def_98 (not A3))) (let ((.def_99 (and A13 .def_98))) (let ((.def_100 (and .def_99 .def_97))) (let ((.def_101 (or .def_100 .def_94))) (let ((.def_102 (or .def_101 .def_89))) (let ((.def_103 (or .def_102 .def_76))) (let ((.def_104 (and .def_103 .def_52))) .def_104))))))))))))))))))))))))))))))))))))))))))))))))))))))))))))))))))))))))))))))))))))))))))))))))))))))))))
(check-sat)
